

******************************************************************************
This program contains Ipopt, a library for large-scale nonlinear optimization.
 Ipopt is released as open source code under the Eclipse Public License (EPL).
         For more information visit https://github.com/coin-or/Ipopt
******************************************************************************

This is Ipopt version 3.14.11, running with linear solver MUMPS 5.5.1.

Number of nonzeros in equality constraint Jacobian...:        0
Number of nonzeros in inequality constraint Jacobian.:        0
Number of nonzeros in Lagrangian Hessian.............:       36

Total number of variables............................:        8
                     variables with only lower bounds:        0
                variables with lower and upper bounds:        0
                     variables with only upper bounds:        0
Total number of equality constraints.................:        0
Total number of inequality constraints...............:        0
        inequality constraints with only lower bounds:        0
   inequality constraints with lower and upper bounds:        0
        inequality constraints with only upper bounds:        0

iter    objective    inf_pr   inf_du lg(mu)  ||d||  lg(rg) alpha_du alpha_pr  ls
   0  2.0843531e+06 0.00e+00 1.00e+02  -1.0 0.00e+00    -  0.00e+00 0.00e+00   0
   1  3.9210604e+04 0.00e+00 1.07e+00  -1.0 1.07e+00   0.0 1.00e+00 1.00e+00f  1
   2  3.8405018e+04 0.00e+00 4.34e-02  -1.0 1.30e-01  -0.5 1.00e+00 1.00e+00f  1
   3  3.7407999e+04 0.00e+00 2.88e-02  -2.5 2.59e-01  -1.0 1.00e+00 1.00e+00f  1
   4  3.5615977e+04 0.00e+00 2.92e-02  -2.5 7.91e-01  -1.4 1.00e+00 1.00e+00f  1
   5  3.1423583e+04 0.00e+00 4.19e-01  -2.5 2.20e+00  -1.9 1.00e+00 1.00e+00f  1
   6  2.3299185e+04 0.00e+00 1.36e-01  -2.5 5.17e+00  -2.4 1.00e+00 1.00e+00f  1
   7  1.2164128e+04 0.00e+00 1.38e-02  -2.5 9.30e+00  -2.9 1.00e+00 1.00e+00f  1
   8  3.5685317e+03 0.00e+00 1.05e-02  -3.8 1.31e+01  -3.3 1.00e+00 1.00e+00f  1
   9  7.4188202e+02 0.00e+00 4.70e-02  -3.8 1.25e+01  -3.8 1.00e+00 1.00e+00f  1
iter    objective    inf_pr   inf_du lg(mu)  ||d||  lg(rg) alpha_du alpha_pr  ls
  10  1.2667619e+02 0.00e+00 5.37e-03  -3.8 9.57e+00  -4.3 1.00e+00 1.00e+00f  1
  11  3.0874516e+01 0.00e+00 3.91e-03  -3.8 1.41e+02    -  1.00e+00 1.00e+00f  1
  12  9.3776154e+00 0.00e+00 1.12e-04  -3.8 8.86e-01  -3.9 1.00e+00 1.00e+00f  1
  13  6.6081670e+00 0.00e+00 4.16e-04  -5.7 8.12e-01  -4.3 1.00e+00 1.00e+00f  1
  14  5.4437688e+00 0.00e+00 6.16e-05  -5.7 8.94e-01  -4.8 1.00e+00 1.00e+00f  1
  15  4.8471100e+00 0.00e+00 5.76e-04  -5.7 3.58e+02    -  1.00e+00 3.12e-02f  6
  16  3.5234726e+00 0.00e+00 1.59e-04  -5.7 1.13e+00  -5.3 1.00e+00 1.00e+00f  1
  17  3.4352280e+00 0.00e+00 9.55e-05  -5.7 2.67e-01  -4.9 1.00e+00 1.00e+00f  1
  18  3.3157568e+00 0.00e+00 7.88e-04  -5.7 5.16e-01  -5.4 1.00e+00 1.00e+00f  1
  19  3.1982910e+00 0.00e+00 1.79e-04  -5.7 8.17e-01  -5.8 1.00e+00 1.00e+00f  1
iter    objective    inf_pr   inf_du lg(mu)  ||d||  lg(rg) alpha_du alpha_pr  ls
  20  3.1855676e+00 0.00e+00 2.75e-03  -5.7 5.42e-01  -5.4 1.00e+00 5.00e-01f  2
  21  3.1522883e+00 0.00e+00 2.06e-03  -5.7 5.42e-01  -5.9 1.00e+00 1.00e+00f  1
  22  3.1372266e+00 0.00e+00 6.13e-05  -5.7 3.05e-02  -4.5 1.00e+00 1.00e+00f  1
  23  3.1340407e+00 0.00e+00 1.25e-05  -5.7 6.96e-02  -5.0 1.00e+00 1.00e+00f  1
  24  3.1272894e+00 0.00e+00 7.42e-05  -8.6 1.71e-01  -5.5 1.00e+00 1.00e+00f  1
  25  3.1177316e+00 0.00e+00 1.14e-04  -8.6 3.34e-01  -6.0 1.00e+00 1.00e+00f  1
  26  3.1155174e+00 0.00e+00 1.65e-05  -8.6 1.06e-01  -5.6 1.00e+00 1.00e+00f  1
  27  3.1124490e+00 0.00e+00 1.37e-05  -8.6 2.01e-01  -6.0 1.00e+00 1.00e+00f  1
  28  3.1117714e+00 0.00e+00 2.05e-06  -8.6 6.24e-02  -5.6 1.00e+00 1.00e+00f  1
  29  3.1108756e+00 0.00e+00 5.06e-06  -8.6 1.15e-01  -6.1 1.00e+00 1.00e+00f  1
iter    objective    inf_pr   inf_du lg(mu)  ||d||  lg(rg) alpha_du alpha_pr  ls
  30  3.1103998e+00 0.00e+00 7.00e-06  -8.6 1.20e-01  -6.6 1.00e+00 1.00e+00f  1
  31  3.1103561e+00 0.00e+00 9.90e-07  -8.6 2.67e-02  -6.1 1.00e+00 1.00e+00f  1
  32  3.1103344e+00 0.00e+00 1.06e-05  -8.6 2.68e-02  -6.6 1.00e+00 1.00e+00f  1
  33  3.1103252e+00 0.00e+00 7.29e-05  -8.6 4.65e-02  -7.1 1.00e+00 1.00e+00f  1
  34  3.1103207e+00 0.00e+00 1.48e-05  -8.6 8.36e-01  -7.6 1.00e+00 3.12e-02f  6
  35  3.1103118e+00 0.00e+00 6.37e-05  -8.6 2.18e-02  -6.2 1.00e+00 1.00e+00f  1
  36  3.1102939e+00 0.00e+00 4.67e-05  -8.6 5.46e-02  -6.7 1.00e+00 1.00e+00f  1
  37  3.1102799e+00 0.00e+00 1.25e-06  -8.6 3.62e-03  -5.4 1.00e+00 1.00e+00f  1
  38  3.1102725e+00 0.00e+00 1.05e-05  -8.6 1.17e-02  -5.9 1.00e+00 1.00e+00f  1
  39  3.1102423e+00 0.00e+00 1.33e-04  -8.6 4.52e-02  -6.3 1.00e+00 1.00e+00f  1
iter    objective    inf_pr   inf_du lg(mu)  ||d||  lg(rg) alpha_du alpha_pr  ls
  40  3.1102200e+00 0.00e+00 1.32e-05  -8.6 1.70e-02  -5.9 1.00e+00 1.00e+00f  1
  41  3.1101554e+00 0.00e+00 4.71e-04  -8.6 9.58e-02  -6.4 1.00e+00 1.00e+00f  1
  42  3.1100059e+00 0.00e+00 1.26e-05  -8.6 3.48e-02  -6.0 1.00e+00 1.00e+00f  1
  43  3.1097967e+00 0.00e+00 4.02e-04  -8.6 7.76e-01  -6.4 1.00e+00 1.25e-01f  4
  44  3.1092865e+00 0.00e+00 1.01e-04  -8.6 9.32e-02  -6.0 1.00e+00 1.00e+00f  1
  45  3.1089068e+00 0.00e+00 9.78e-05  -8.6 6.25e-02  -5.6 1.00e+00 1.00e+00f  1
  46  3.1056955e+00 0.00e+00 2.14e-03  -8.6 4.11e-01  -6.1 1.00e+00 1.00e+00f  1
  47  3.0960053e+00 0.00e+00 2.09e-04  -8.6 2.45e-01  -5.6 1.00e+00 1.00e+00f  1
  48  3.0892255e+00 0.00e+00 9.91e-05  -8.6 1.74e-01  -5.2 1.00e+00 1.00e+00f  1
  49  2.9683473e+00 0.00e+00 1.93e-03  -8.6 1.56e+00  -5.7 1.00e+00 1.00e+00f  1
iter    objective    inf_pr   inf_du lg(mu)  ||d||  lg(rg) alpha_du alpha_pr  ls
  50  2.8281816e+00 0.00e+00 1.38e-05  -8.6 7.09e-01  -5.3 1.00e+00 1.00e+00f  1
  51  2.1553953e+00 0.00e+00 4.70e-05  -8.6 3.47e+00  -5.7 1.00e+00 1.00e+00f  1
  52  8.1750032e-01 0.00e+00 4.42e-05  -8.6 4.38e+01    -  1.00e+00 2.50e-01f  3
  53  5.2860004e-01 0.00e+00 1.56e-06  -8.6 1.58e+00  -6.2 1.00e+00 1.00e+00f  1
  54  3.6742299e-01 0.00e+00 4.69e-05  -8.6 1.20e+01    -  1.00e+00 5.00e-01f  2
  55  1.7482720e-01 0.00e+00 2.12e-06  -8.6 6.00e+00    -  1.00e+00 1.00e+00f  1
  56  1.1939317e-01 0.00e+00 1.70e-05  -8.6 4.77e+01    -  1.00e+00 6.25e-02f  5
  57  7.9053058e-02 0.00e+00 2.11e-05  -8.6 3.22e+00    -  1.00e+00 1.00e+00f  1
  58  4.6955132e-02 0.00e+00 5.35e-06  -8.6 2.25e+00    -  1.00e+00 1.00e+00f  1
  59  3.4020654e-02 0.00e+00 1.03e-05  -8.6 4.38e+00    -  1.00e+00 5.00e-01f  2
iter    objective    inf_pr   inf_du lg(mu)  ||d||  lg(rg) alpha_du alpha_pr  ls
  60  2.0927038e-02 0.00e+00 7.74e-06  -8.6 2.38e+00    -  1.00e+00 1.00e+00f  1
  61  1.2752674e-02 0.00e+00 7.02e-06  -8.6 2.24e+00    -  1.00e+00 1.00e+00f  1
  62  7.4453476e-03 0.00e+00 4.48e-06  -8.6 1.81e+00    -  1.00e+00 1.00e+00f  1
  63  4.3956500e-03 0.00e+00 4.86e-06  -8.6 1.85e+00    -  1.00e+00 1.00e+00f  1
  64  2.4663275e-03 0.00e+00 2.04e-06  -8.6 1.24e+00    -  1.00e+00 1.00e+00f  1
  65  1.5757676e-03 0.00e+00 3.21e-06  -8.6 1.52e+00    -  1.00e+00 1.00e+00f  1
  66  1.0436436e-03 0.00e+00 5.56e-07  -8.6 6.76e-01    -  1.00e+00 1.00e+00f  1
  67  8.9196353e-04 0.00e+00 1.24e-06  -8.6 9.58e-01    -  1.00e+00 1.00e+00f  1
  68  8.3833204e-04 0.00e+00 5.31e-08  -8.6 2.14e-01    -  1.00e+00 1.00e+00f  1
  69  8.3530373e-04 0.00e+00 3.40e-08  -8.6 1.61e-01    -  1.00e+00 1.00e+00f  1
iter    objective    inf_pr   inf_du lg(mu)  ||d||  lg(rg) alpha_du alpha_pr  ls
  70  8.3526827e-04 0.00e+00 4.72e-11  -8.6 6.36e-03    -  1.00e+00 1.00e+00f  1

Number of Iterations....: 70

                                   (scaled)                 (unscaled)
Objective...............:   2.4811460143914399e-08    8.3526827075268623e-04
Dual infeasibility......:   4.7172341818184142e-11    1.5880387590769610e-06
Constraint violation....:   0.0000000000000000e+00    0.0000000000000000e+00
Variable bound violation:   0.0000000000000000e+00    0.0000000000000000e+00
Complementarity.........:   0.0000000000000000e+00    0.0000000000000000e+00
Overall NLP error.......:   4.7172341818184142e-11    1.5880387590769610e-06


Number of objective function evaluations             = 125
Number of objective gradient evaluations             = 71
Number of equality constraint evaluations            = 0
Number of inequality constraint evaluations          = 0
Number of equality constraint Jacobian evaluations   = 0
Number of inequality constraint Jacobian evaluations = 0
Number of Lagrangian Hessian evaluations             = 70
Total seconds in IPOPT                               = 0.049

EXIT: Optimal Solution Found.
 
Ipopt 3.14.11: Optimal Solution Found
